Minimize
  obj: x0 + x1 + x2 + x3 + x4 + x5 + x6 + x7 + x8

Subject To
  c0: x2 + x4 + x6 + x7 = 54
  c1: x2 + x7 = 27
  c2: x1 + x3 + x4 + x6 + x7 + x8 = 66
  c3: x0 + x2 + x3 + x4 + x5 + x6 + x7 = 58
  c4: x2 + x4 + x5 + x6 = 35
  c5: x2 + x3 + x7 = 28
  c6: x2 + x3 + x4 + x6 + x7 + x8 = 62
  c7: x0 + x2 + x3 + x6 + x7 = 40
  c8: x1 + x2 + x3 + x4 + x6 = 48
  c9: x1 + x2 + x6 = 29

Bounds
  x0 >= 0
  x1 >= 0
  x2 >= 0
  x3 >= 0
  x4 >= 0
  x5 >= 0
  x6 >= 0
  x7 >= 0
  x8 >= 0

Generals
  x0 x1 x2 x3 x4 x5 x6 x7 x8

End
